23185.86,56.33,62.04
26627.84,49.05,54.02
26314.17,49.64,54.66
24734.05,52.81,58.16
26606.53,49.09,54.06
23539.98,55.49,61.11
24937.68,52.38,57.68
24199.42,53.98,59.44
26108.56,50.03,55.09
24551.09,53.2,58.59
23477.88,55.63,61.27
23494.37,55.59,61.22
21251.37,61.46,67.69
28129.36,46.43,51.14
27955.25,46.72,51.46
23905.16,54.64,60.17
25711.86,50.8,55.94
25727.9,50.77,55.91
25892.16,50.45,55.55
24567.08,53.17,58.55
